
Gurobi 10.0.1 (win64, gurobi_cl) logging started Sun Mar 31 21:03:29 2024

Set parameter Username
Set parameter LogFile to value "gurobi.log"
Academic license - for non-commercial use only - expires 2024-05-30
Using license file C:\Users\maria\gurobi.lic

Gurobi 10.0.1 (win64, gurobi_cl) logging started Sun Mar 31 21:03:29 2024

Set parameter Username
Set parameter LogFile to value "gurobi.log"
Academic license - for non-commercial use only - expires 2024-05-30
Using license file C:\Users\maria\gurobi.lic

Gurobi 10.0.1 (win64, gurobi_cl) logging started Sun Mar 31 21:04:18 2024

Set parameter Username
Set parameter LogFile to value "gurobi.log"
Academic license - for non-commercial use only - expires 2024-05-30
Using license file C:\Users\maria\gurobi.lic

Gurobi 10.0.1 (win64, gurobi_cl) logging started Sun Mar 31 21:05:09 2024

Set parameter Username
Set parameter LogFile to value "gurobi.log"
Academic license - for non-commercial use only - expires 2024-05-30
Using license file C:\Users\maria\gurobi.lic

Gurobi 10.0.1 (win64, gurobi_cl) logging started Sun Mar 31 21:07:56 2024

Set parameter Username
Set parameter LogFile to value "gurobi.log"
Academic license - for non-commercial use only - expires 2024-05-30
Using license file C:\Users\maria\gurobi.lic

Gurobi 10.0.1 (win64, gurobi_cl) logging started Sun Mar 31 21:07:56 2024

Set parameter Username
Set parameter LogFile to value "gurobi.log"
Academic license - for non-commercial use only - expires 2024-05-30
Using license file C:\Users\maria\gurobi.lic

Gurobi 10.0.1 (win64, gurobi_cl) logging started Sun Mar 31 21:08:05 2024

Set parameter Username
Set parameter LogFile to value "gurobi.log"
Academic license - for non-commercial use only - expires 2024-05-30
Using license file C:\Users\maria\gurobi.lic

Gurobi 10.0.1 (win64, gurobi_cl) logging started Sun Mar 31 21:08:05 2024

Set parameter Username
Set parameter LogFile to value "gurobi.log"
Academic license - for non-commercial use only - expires 2024-05-30
Using license file C:\Users\maria\gurobi.lic

Gurobi 10.0.1 (win64, gurobi_cl) logging started Sun Mar 31 21:08:54 2024

Set parameter Username

Gurobi 10.0.1 (win64, gurobi_cl) logging started Sun Mar 31 21:08:54 2024

Set parameter Username

Gurobi 10.0.1 (win64, gurobi_cl) logging started Sun Mar 31 21:33:18 2024

Set parameter Username

Gurobi 10.0.1 (win64, gurobi_cl) logging started Sun Mar 31 21:33:18 2024

Set parameter Username

Gurobi 10.0.1 (win64, gurobi_cl) logging started Sun Mar 31 21:35:44 2024

Set parameter Username

Gurobi 10.0.1 (win64, gurobi_cl) logging started Sun Mar 31 21:35:44 2024

Set parameter Username

Gurobi 10.0.1 (win64, gurobi_cl) logging started Sun Mar 31 21:56:54 2024

Set parameter Username

Gurobi 10.0.1 (win64, gurobi_cl) logging started Sun Mar 31 22:02:33 2024

Set parameter Username

Gurobi 10.0.1 (win64, gurobi_cl) logging started Sun Mar 31 22:02:56 2024

Set parameter Username

Gurobi 10.0.1 (win64, gurobi_cl) logging started Sun Mar 31 22:13:41 2024

Set parameter Username

Gurobi 10.0.1 (win64, gurobi_cl) logging started Thu May 16 17:15:29 2024

Set parameter Username
